solution status: optimal solution found
objective value:                                   18
thing.thing.chamber[2].thingy.v2_y                   15 	(obj:0)
thing.thing.chamber[2].thingy.v2_z                   19 	(obj:0)
thing.thing.chamber[2].thingy.v4_y                   13 	(obj:0)
thing.thing.chamber[2].thingy.v4_z                   17 	(obj:0)
thing.thing.chamber[2].thingy.v5_y                   13 	(obj:0)
thing.thing.chamber[2].thingy.v5_z                   16 	(obj:0)
thing.thing.chamber[1].thingy.v3_y                   17 	(obj:0)
thing.thing.chamber[1].thingy.v3_z                   19 	(obj:0)
thing.thing.chamber[0].thingy.r1c_y                   18 	(obj:0)
thing.thing.chamber[0].thingy.r1c_z                   18 	(obj:0)
thing.thing.chamber[1].thingy.v10_y                   18 	(obj:0)
thing.thing.chamber[1].thingy.v10_z                   22 	(obj:0)
thing.thing.chamber[2].thingy.v9_y                   16 	(obj:0)
thing.thing.chamber[2].thingy.v9_z                   18 	(obj:0)
thing.thing.chamber[2].thingy.v6_y                   15 	(obj:0)
thing.thing.chamber[2].thingy.v6_z                   18 	(obj:0)
thing.thing.chamber[1].thingy.r2c_y                   13 	(obj:0)
thing.thing.chamber[1].thingy.r2c_z                   18 	(obj:0)
thing.thing.chamber[2].thingy.v3_y                   17 	(obj:0)
thing.thing.chamber[2].thingy.v3_z                   21 	(obj:0)
thing.thing.chamber[1].thingy.v11_y                   18 	(obj:0)
thing.thing.chamber[1].thingy.v11_z                   20 	(obj:0)
thing.thing.chamber[2].thingy.v8_y                   17 	(obj:0)
thing.thing.chamber[2].thingy.v8_z                   18 	(obj:0)
thing.thing.chamber[2].thingy.r3c_y                   16 	(obj:0)
thing.thing.chamber[2].thingy.r3c_z                   17 	(obj:0)
thing.loop_exit_ctrl_hole_y                        14 	(obj:0)
thing.loop_exit_ctrl_hole_z                        19 	(obj:0)
thing.thing.chamber[0].thingy.v11_y                   16 	(obj:0)
thing.thing.chamber[0].thingy.v11_z                   19 	(obj:0)
thing.thing.chamber[1].thingy.v2_y                   15 	(obj:0)
thing.thing.chamber[1].thingy.v2_z                   20 	(obj:0)
thing.thing.chamber[0].thingy.p2_y                   17 	(obj:0)
thing.thing.chamber[0].thingy.p2_z                   20 	(obj:0)
thing.vertical_ctrl_hole_y                         14 	(obj:0)
thing.vertical_ctrl_hole_z                         17 	(obj:0)
thing.vertical_flush_hole_y                        17 	(obj:0)
thing.vertical_flush_hole_z                        17 	(obj:0)
thing.thing.chamber[1].thingy.r3c_y                   16 	(obj:0)
thing.thing.chamber[1].thingy.r3c_z                   20 	(obj:0)
thing.thing.chamber[0].thingy.p0_y                   16 	(obj:0)
thing.thing.chamber[0].thingy.p0_z                   21 	(obj:0)
thing.thing.chamber[1].thingy.r4c_y                   14 	(obj:0)
thing.thing.chamber[1].thingy.r4c_z                   20 	(obj:0)
thing.thing.chamber[2].thingy.v7_y                   14 	(obj:0)
thing.thing.chamber[2].thingy.v7_z                   18 	(obj:0)
x67                                                 1 	(obj:1)
x72                                                 1 	(obj:1)
x75                                                 1 	(obj:1)
x77                                                 1 	(obj:1)
x80                                                 1 	(obj:1)
x81                                                 1 	(obj:1)
x83                                                 1 	(obj:1)
x85                                                 1 	(obj:1)
x86                                                 2 	(obj:1)
x92                                                 2 	(obj:1)
x100                                                2 	(obj:1)
x112                                                2 	(obj:1)
x113                                                2 	(obj:1)
